param set_len = 30;
param target = 207264;
param values := [0] 12030 [1] 9465 [2] 22247 [3] 364 [4] 22253 [5] 26006 [6] 27519 [7] 8184 [8] 25029 [9] 6410 [10] 15337 [11] 5036 [12] 5318 [13] 7885 [14] 5520 [15] 16521 [16] 7913 [17] 18798 [18] 10196 [19] 9173 [20] 23540 [21] 11365 [22] 24850 [23] 4458 [24] 22899 [25] 30440 [26] 21088 [27] 20484 [28] 15030 [29] 18959 ;
